Tried aggregator 2 times.
MIP Presolve eliminated 3 rows and 1 columns.
MIP Presolve modified 12 coefficients.
Aggregator did 12 substitutions.
Reduced MIP has 73 rows, 70 columns, and 187 nonzeros.
Reduced MIP has 39 binaries, 7 generals, 0 SOSs, and 0 indicators.
Presolve time = 0.00 sec. (0.15 ticks)
Found incumbent of value 8.000000 after 0.00 sec. (0.27 ticks)
Probing fixed 3 vars, tightened 16 bounds.
Probing time = 0.00 sec. (0.09 ticks)
Tried aggregator 3 times.
MIP Presolve eliminated 5 rows and 5 columns.
MIP Presolve modified 44 coefficients.
Aggregator did 28 substitutions.
Reduced MIP has 40 rows, 37 columns, and 141 nonzeros.
Reduced MIP has 29 binaries, 8 generals, 0 SOSs, and 0 indicators.
Presolve time = 0.00 sec. (0.22 ticks)
Probing time = 0.00 sec. (0.02 ticks)
Tried aggregator 1 time.
Reduced MIP has 40 rows, 37 columns, and 141 nonzeros.
Reduced MIP has 29 binaries, 8 generals, 0 SOSs, and 0 indicators.
Presolve time = 0.00 sec. (0.07 ticks)
Probing time = 0.00 sec. (0.03 ticks)
Clique table members: 20.
MIP emphasis: balance optimality and feasibility.
MIP search method: dynamic search.
Parallel mode: deterministic, using up to 4 threads.
Root relaxation solution time = 0.00 sec. (0.07 ticks)

        Nodes                                         Cuts/
   Node  Left     Objective  IInf  Best Integer    Best Bound    ItCnt     Gap

*     0+    0                            8.0000        3.0000       14   62.50%
*     0+    0                            4.0000        3.0000       14   25.00%
      0     0        3.0000    12        4.0000        3.0000       14   25.00%
*     0+    0                            3.0000        3.0000       18    0.00%
      0     0        cutoff              3.0000        3.0000       18    0.00%
Elapsed time = 0.01 sec. (1.01 ticks, tree = 0.00 MB, solutions = 3)

Root node processing (before b&c):
  Real time             =    0.01 sec. (1.01 ticks)
Parallel b&c, 4 threads:
  Real time             =    0.00 sec. (0.00 ticks)
  Sync time (average)   =    0.00 sec.
  Wait time (average)   =    0.00 sec.
                          ------------
Total (root+branch&cut) =    0.01 sec. (1.01 ticks)
